data;

set OBJETS := obj_1 obj_2 obj_3 obj_4 obj_5 obj_6 obj_7 obj_8 obj_9 obj_10 obj_11 obj_12 obj_13 obj_14 obj_15 obj_16 obj_17 obj_18 obj_19 obj_20 obj_21 obj_22 obj_23 obj_24 obj_25 obj_26 obj_27 obj_28 obj_29 obj_30 obj_31 obj_32 obj_33 obj_34 obj_35 obj_36 obj_37 obj_38 obj_39 obj_40 obj_41 obj_42 obj_43 obj_44 obj_45 obj_46 obj_47 obj_48 obj_49 obj_50 obj_51 obj_52 obj_53 obj_54 obj_55 obj_56 obj_57 obj_58 obj_59 obj_60 obj_61 obj_62 obj_63 obj_64 obj_65 obj_66 obj_67 obj_68 obj_69 obj_70 obj_71 obj_72 obj_73 obj_74 obj_75 obj_76 obj_77 obj_78 obj_79 obj_80 obj_81 obj_82 obj_83 obj_84 obj_85 obj_86 obj_87 obj_88 obj_89 obj_90 obj_91 obj_92 obj_93 obj_94 obj_95 obj_96 obj_97 obj_98 obj_99 obj_100 obj_101 obj_102 obj_103 obj_104 obj_105 obj_106 obj_107 obj_108 obj_109 obj_110 obj_111 obj_112 obj_113 obj_114 obj_115 obj_116 obj_117 obj_118 obj_119 obj_120 obj_121 obj_122 obj_123 obj_124 obj_125 obj_126 obj_127 obj_128 obj_129 obj_130 obj_131 obj_132 obj_133 obj_134 obj_135 obj_136 obj_137 obj_138 obj_139 obj_140 obj_141 obj_142 obj_143 obj_144 obj_145 obj_146 obj_147 obj_148 obj_149 obj_150 obj_151 obj_152 obj_153 obj_154 obj_155 obj_156 obj_157 obj_158 obj_159 obj_160 obj_161 obj_162 obj_163 obj_164 obj_165 obj_166 obj_167 obj_168 obj_169 obj_170 obj_171 obj_172 obj_173 obj_174 obj_175 obj_176 obj_177 obj_178 obj_179 obj_180 obj_181 obj_182 obj_183 obj_184 obj_185 obj_186 obj_187 obj_188 obj_189 obj_190 obj_191 obj_192 obj_193 obj_194 obj_195 obj_196 obj_197 obj_198 obj_199 obj_200 obj_201 obj_202 obj_203 obj_204 obj_205 obj_206 obj_207 obj_208 obj_209 obj_210 obj_211 obj_212 obj_213 obj_214 obj_215 obj_216 obj_217 obj_218 obj_219 obj_220 obj_221 obj_222 obj_223 obj_224 obj_225 obj_226 obj_227 obj_228 obj_229 obj_230 obj_231 obj_232 obj_233 obj_234 obj_235 obj_236 obj_237 obj_238 obj_239 obj_240 obj_241 obj_242 obj_243 obj_244 obj_245 obj_246 obj_247 obj_248 obj_249 obj_250 obj_251 obj_252 obj_253 obj_254 obj_255 obj_256 obj_257 obj_258 obj_259 obj_260 obj_261 obj_262 obj_263 obj_264 obj_265 obj_266 obj_267 obj_268 obj_269 obj_270 obj_271 obj_272 obj_273 obj_274 obj_275 obj_276 obj_277 obj_278 obj_279 obj_280 obj_281 obj_282 obj_283 obj_284 obj_285 obj_286 obj_287 obj_288 obj_289 obj_290 obj_291 obj_292 obj_293 obj_294 obj_295 obj_296 obj_297 obj_298 obj_299 obj_300 obj_301 obj_302 obj_303 obj_304 obj_305 obj_306 obj_307 obj_308 obj_309 obj_310 obj_311 obj_312 obj_313 obj_314 obj_315 obj_316 obj_317 obj_318 obj_319 obj_320 obj_321 obj_322 obj_323 obj_324 obj_325 obj_326 obj_327 obj_328 obj_329 obj_330 obj_331 obj_332 obj_333 obj_334 obj_335 obj_336 obj_337 obj_338 obj_339 obj_340 obj_341 obj_342 obj_343 obj_344 obj_345 obj_346 obj_347 obj_348 obj_349 obj_350 obj_351 obj_352 obj_353 obj_354 obj_355 obj_356 obj_357 obj_358 obj_359 obj_360 obj_361 obj_362 obj_363 obj_364 obj_365 obj_366 obj_367 obj_368 obj_369 obj_370 obj_371 obj_372 obj_373 obj_374 obj_375 obj_376 obj_377 obj_378 obj_379 obj_380 obj_381 obj_382 obj_383 obj_384 obj_385 obj_386 obj_387 obj_388 obj_389 obj_390 obj_391 obj_392 obj_393 obj_394 obj_395 obj_396 obj_397 obj_398 obj_399 obj_400 obj_401 obj_402 obj_403 obj_404 obj_405 obj_406 obj_407 obj_408 obj_409 obj_410 obj_411 obj_412 obj_413 obj_414 obj_415 obj_416 obj_417 obj_418 obj_419 obj_420 obj_421 obj_422 obj_423 obj_424 obj_425 obj_426 obj_427 obj_428 obj_429 obj_430 obj_431 obj_432 obj_433 obj_434 obj_435 obj_436 obj_437 obj_438 obj_439 obj_440 obj_441 obj_442 obj_443 obj_444 obj_445 obj_446 obj_447 obj_448 obj_449 obj_450 obj_451 obj_452 obj_453 obj_454 obj_455 obj_456 obj_457 obj_458 obj_459 obj_460 obj_461 obj_462 obj_463 obj_464 obj_465 obj_466 obj_467 obj_468 obj_469 obj_470 obj_471 obj_472 obj_473 obj_474 obj_475 obj_476 obj_477 obj_478 obj_479 obj_480 obj_481 obj_482 obj_483 obj_484 obj_485 obj_486 obj_487 obj_488 obj_489 obj_490 obj_491 obj_492 obj_493 obj_494 obj_495 obj_496 obj_497 obj_498 obj_499 obj_500 ;

param poids :=
	obj_1	102
	obj_2	120
	obj_3	132
	obj_4	142
	obj_5	142
	obj_6	133
	obj_7	107
	obj_8	133
	obj_9	156
	obj_10	167
	obj_11	184
	obj_12	199
	obj_13	166
	obj_14	164
	obj_15	133
	obj_16	167
	obj_17	147
	obj_18	150
	obj_19	122
	obj_20	196
	obj_21	151
	obj_22	178
	obj_23	169
	obj_24	172
	obj_25	160
	obj_26	145
	obj_27	114
	obj_28	144
	obj_29	134
	obj_30	118
	obj_31	123
	obj_32	180
	obj_33	113
	obj_34	173
	obj_35	149
	obj_36	120
	obj_37	152
	obj_38	146
	obj_39	131
	obj_40	169
	obj_41	160
	obj_42	166
	obj_43	108
	obj_44	158
	obj_45	199
	obj_46	182
	obj_47	110
	obj_48	149
	obj_49	140
	obj_50	139
	obj_51	123
	obj_52	112
	obj_53	117
	obj_54	159
	obj_55	162
	obj_56	124
	obj_57	169
	obj_58	185
	obj_59	139
	obj_60	133
	obj_61	167
	obj_62	193
	obj_63	192
	obj_64	159
	obj_65	106
	obj_66	155
	obj_67	169
	obj_68	156
	obj_69	177
	obj_70	126
	obj_71	163
	obj_72	140
	obj_73	141
	obj_74	149
	obj_75	177
	obj_76	178
	obj_77	180
	obj_78	176
	obj_79	106
	obj_80	108
	obj_81	122
	obj_82	156
	obj_83	174
	obj_84	119
	obj_85	176
	obj_86	121
	obj_87	178
	obj_88	175
	obj_89	158
	obj_90	157
	obj_91	103
	obj_92	112
	obj_93	124
	obj_94	139
	obj_95	126
	obj_96	129
	obj_97	141
	obj_98	177
	obj_99	118
	obj_100	124
	obj_101	176
	obj_102	106
	obj_103	134
	obj_104	129
	obj_105	181
	obj_106	150
	obj_107	112
	obj_108	167
	obj_109	111
	obj_110	104
	obj_111	160
	obj_112	191
	obj_113	181
	obj_114	122
	obj_115	104
	obj_116	153
	obj_117	137
	obj_118	148
	obj_119	181
	obj_120	112
	obj_121	119
	obj_122	100
	obj_123	171
	obj_124	162
	obj_125	130
	obj_126	177
	obj_127	184
	obj_128	161
	obj_129	179
	obj_130	141
	obj_131	174
	obj_132	109
	obj_133	175
	obj_134	178
	obj_135	101
	obj_136	123
	obj_137	108
	obj_138	157
	obj_139	133
	obj_140	153
	obj_141	155
	obj_142	147
	obj_143	176
	obj_144	109
	obj_145	125
	obj_146	182
	obj_147	164
	obj_148	192
	obj_149	159
	obj_150	125
	obj_151	128
	obj_152	130
	obj_153	157
	obj_154	113
	obj_155	132
	obj_156	170
	obj_157	102
	obj_158	199
	obj_159	140
	obj_160	157
	obj_161	136
	obj_162	105
	obj_163	132
	obj_164	150
	obj_165	194
	obj_166	196
	obj_167	120
	obj_168	130
	obj_169	185
	obj_170	177
	obj_171	142
	obj_172	100
	obj_173	130
	obj_174	128
	obj_175	117
	obj_176	168
	obj_177	122
	obj_178	108
	obj_179	173
	obj_180	130
	obj_181	152
	obj_182	143
	obj_183	121
	obj_184	156
	obj_185	164
	obj_186	162
	obj_187	115
	obj_188	104
	obj_189	184
	obj_190	109
	obj_191	149
	obj_192	174
	obj_193	105
	obj_194	190
	obj_195	153
	obj_196	126
	obj_197	179
	obj_198	112
	obj_199	125
	obj_200	184
	obj_201	112
	obj_202	117
	obj_203	180
	obj_204	145
	obj_205	191
	obj_206	131
	obj_207	134
	obj_208	187
	obj_209	117
	obj_210	175
	obj_211	113
	obj_212	169
	obj_213	158
	obj_214	128
	obj_215	194
	obj_216	178
	obj_217	105
	obj_218	163
	obj_219	118
	obj_220	166
	obj_221	128
	obj_222	173
	obj_223	138
	obj_224	109
	obj_225	118
	obj_226	140
	obj_227	105
	obj_228	167
	obj_229	188
	obj_230	124
	obj_231	117
	obj_232	178
	obj_233	143
	obj_234	112
	obj_235	193
	obj_236	184
	obj_237	119
	obj_238	130
	obj_239	109
	obj_240	111
	obj_241	199
	obj_242	152
	obj_243	124
	obj_244	122
	obj_245	141
	obj_246	149
	obj_247	118
	obj_248	138
	obj_249	170
	obj_250	170
	obj_251	188
	obj_252	179
	obj_253	145
	obj_254	116
	obj_255	127
	obj_256	186
	obj_257	112
	obj_258	115
	obj_259	129
	obj_260	153
	obj_261	134
	obj_262	139
	obj_263	170
	obj_264	122
	obj_265	104
	obj_266	106
	obj_267	173
	obj_268	180
	obj_269	157
	obj_270	155
	obj_271	102
	obj_272	135
	obj_273	158
	obj_274	180
	obj_275	133
	obj_276	108
	obj_277	182
	obj_278	119
	obj_279	176
	obj_280	110
	obj_281	170
	obj_282	138
	obj_283	195
	obj_284	133
	obj_285	150
	obj_286	182
	obj_287	129
	obj_288	117
	obj_289	149
	obj_290	118
	obj_291	193
	obj_292	154
	obj_293	178
	obj_294	149
	obj_295	132
	obj_296	174
	obj_297	144
	obj_298	101
	obj_299	107
	obj_300	119
	obj_301	176
	obj_302	154
	obj_303	134
	obj_304	120
	obj_305	101
	obj_306	190
	obj_307	101
	obj_308	108
	obj_309	137
	obj_310	127
	obj_311	175
	obj_312	166
	obj_313	178
	obj_314	187
	obj_315	175
	obj_316	157
	obj_317	137
	obj_318	131
	obj_319	154
	obj_320	161
	obj_321	173
	obj_322	102
	obj_323	180
	obj_324	105
	obj_325	133
	obj_326	140
	obj_327	186
	obj_328	149
	obj_329	120
	obj_330	122
	obj_331	138
	obj_332	103
	obj_333	175
	obj_334	191
	obj_335	188
	obj_336	119
	obj_337	168
	obj_338	178
	obj_339	184
	obj_340	116
	obj_341	138
	obj_342	102
	obj_343	125
	obj_344	104
	obj_345	158
	obj_346	176
	obj_347	101
	obj_348	158
	obj_349	138
	obj_350	166
	obj_351	129
	obj_352	103
	obj_353	136
	obj_354	168
	obj_355	182
	obj_356	195
	obj_357	183
	obj_358	161
	obj_359	191
	obj_360	134
	obj_361	121
	obj_362	195
	obj_363	107
	obj_364	123
	obj_365	175
	obj_366	182
	obj_367	147
	obj_368	168
	obj_369	118
	obj_370	100
	obj_371	104
	obj_372	107
	obj_373	141
	obj_374	142
	obj_375	175
	obj_376	191
	obj_377	140
	obj_378	128
	obj_379	129
	obj_380	165
	obj_381	146
	obj_382	109
	obj_383	120
	obj_384	104
	obj_385	168
	obj_386	172
	obj_387	136
	obj_388	100
	obj_389	140
	obj_390	163
	obj_391	190
	obj_392	147
	obj_393	163
	obj_394	134
	obj_395	158
	obj_396	101
	obj_397	117
	obj_398	162
	obj_399	154
	obj_400	104
	obj_401	198
	obj_402	104
	obj_403	193
	obj_404	165
	obj_405	177
	obj_406	193
	obj_407	195
	obj_408	193
	obj_409	179
	obj_410	191
	obj_411	117
	obj_412	125
	obj_413	114
	obj_414	191
	obj_415	119
	obj_416	141
	obj_417	108
	obj_418	166
	obj_419	108
	obj_420	170
	obj_421	178
	obj_422	100
	obj_423	113
	obj_424	191
	obj_425	190
	obj_426	178
	obj_427	157
	obj_428	119
	obj_429	144
	obj_430	126
	obj_431	172
	obj_432	105
	obj_433	186
	obj_434	122
	obj_435	134
	obj_436	109
	obj_437	134
	obj_438	171
	obj_439	192
	obj_440	135
	obj_441	177
	obj_442	117
	obj_443	109
	obj_444	106
	obj_445	155
	obj_446	170
	obj_447	148
	obj_448	165
	obj_449	134
	obj_450	196
	obj_451	177
	obj_452	114
	obj_453	167
	obj_454	173
	obj_455	175
	obj_456	182
	obj_457	148
	obj_458	101
	obj_459	168
	obj_460	180
	obj_461	156
	obj_462	170
	obj_463	129
	obj_464	124
	obj_465	192
	obj_466	104
	obj_467	197
	obj_468	131
	obj_469	106
	obj_470	119
	obj_471	107
	obj_472	121
	obj_473	173
	obj_474	161
	obj_475	149
	obj_476	100
	obj_477	100
	obj_478	125
	obj_479	199
	obj_480	170
	obj_481	158
	obj_482	138
	obj_483	128
	obj_484	127
	obj_485	112
	obj_486	193
	obj_487	168
	obj_488	119
	obj_489	152
	obj_490	113
	obj_491	128
	obj_492	189
	obj_493	192
	obj_494	132
	obj_495	180
	obj_496	170
	obj_497	151
	obj_498	149
	obj_499	109
	obj_500	182
;

param valeur :=
	obj_1	104148
	obj_2	121657
	obj_3	139239
	obj_4	150570
	obj_5	150156
	obj_6	134954
	obj_7	110357
	obj_8	135580
	obj_9	157902
	obj_10	173605
	obj_11	192019
	obj_12	199564
	obj_13	174211
	obj_14	164877
	obj_15	140171
	obj_16	173336
	obj_17	155903
	obj_18	153915
	obj_19	131846
	obj_20	201967
	obj_21	160460
	obj_22	181743
	obj_23	169903
	obj_24	179703
	obj_25	165189
	obj_26	152090
	obj_27	122118
	obj_28	147556
	obj_29	137323
	obj_30	124795
	obj_31	125515
	obj_32	181188
	obj_33	120508
	obj_34	177293
	obj_35	158510
	obj_36	126605
	obj_37	158225
	obj_38	147631
	obj_39	140303
	obj_40	178592
	obj_41	163396
	obj_42	175598
	obj_43	110806
	obj_44	159875
	obj_45	201414
	obj_46	184787
	obj_47	119727
	obj_48	155119
	obj_49	142100
	obj_50	140025
	obj_51	130309
	obj_52	117925
	obj_53	119778
	obj_54	162460
	obj_55	167668
	obj_56	131206
	obj_57	173840
	obj_58	194714
	obj_59	143352
	obj_60	142052
	obj_61	167025
	obj_62	198394
	obj_63	192404
	obj_64	166884
	obj_65	111168
	obj_66	162392
	obj_67	174215
	obj_68	162136
	obj_69	178027
	obj_70	132988
	obj_71	168352
	obj_72	149941
	obj_73	150938
	obj_74	155175
	obj_75	179108
	obj_76	187114
	obj_77	180014
	obj_78	180645
	obj_79	114588
	obj_80	116084
	obj_81	122705
	obj_82	162355
	obj_83	175127
	obj_84	122331
	obj_85	180899
	obj_86	123863
	obj_87	187509
	obj_88	179760
	obj_89	159071
	obj_90	157620
	obj_91	109155
	obj_92	117202
	obj_93	133237
	obj_94	144173
	obj_95	128676
	obj_96	131648
	obj_97	145322
	obj_98	181913
	obj_99	126599
	obj_100	133383
	obj_101	182776
	obj_102	114513
	obj_103	137441
	obj_104	133058
	obj_105	182207
	obj_106	154481
	obj_107	112980
	obj_108	174828
	obj_109	112368
	obj_110	105851
	obj_111	166101
	obj_112	192434
	obj_113	183721
	obj_114	125135
	obj_115	104346
	obj_116	161759
	obj_117	146248
	obj_118	149515
	obj_119	187953
	obj_120	121801
	obj_121	124846
	obj_122	102537
	obj_123	179208
	obj_124	166769
	obj_125	137277
	obj_126	182688
	obj_127	186628
	obj_128	170994
	obj_129	179385
	obj_130	141571
	obj_131	176720
	obj_132	113720
	obj_133	177572
	obj_134	183508
	obj_135	102143
	obj_136	123816
	obj_137	117834
	obj_138	162691
	obj_139	133062
	obj_140	161566
	obj_141	158279
	obj_142	147337
	obj_143	185502
	obj_144	111009
	obj_145	129456
	obj_146	182660
	obj_147	164667
	obj_148	198945
	obj_149	164281
	obj_150	128151
	obj_151	132027
	obj_152	131016
	obj_153	158240
	obj_154	118469
	obj_155	140766
	obj_156	172295
	obj_157	104108
	obj_158	206288
	obj_159	140733
	obj_160	159240
	obj_161	139718
	obj_162	106860
	obj_163	136136
	obj_164	157061
	obj_165	196086
	obj_166	199244
	obj_167	123346
	obj_168	130156
	obj_169	187071
	obj_170	177965
	obj_171	147707
	obj_172	106573
	obj_173	137664
	obj_174	128073
	obj_175	118078
	obj_176	173291
	obj_177	127456
	obj_178	114521
	obj_179	181017
	obj_180	133567
	obj_181	154964
	obj_182	144284
	obj_183	123798
	obj_184	164168
	obj_185	173822
	obj_186	170976
	obj_187	123493
	obj_188	105530
	obj_189	188376
	obj_190	112622
	obj_191	157091
	obj_192	183650
	obj_193	107358
	obj_194	198626
	obj_195	162012
	obj_196	126235
	obj_197	188091
	obj_198	113666
	obj_199	131213
	obj_200	184916
	obj_201	119258
	obj_202	117953
	obj_203	182678
	obj_204	150981
	obj_205	199003
	obj_206	132447
	obj_207	136754
	obj_208	192967
	obj_209	123786
	obj_210	178236
	obj_211	117720
	obj_212	175184
	obj_213	164712
	obj_214	132138
	obj_215	202859
	obj_216	180490
	obj_217	110854
	obj_218	163586
	obj_219	124561
	obj_220	166997
	obj_221	128600
	obj_222	174176
	obj_223	140495
	obj_224	111351
	obj_225	119566
	obj_226	142744
	obj_227	107333
	obj_228	167137
	obj_229	189498
	obj_230	132054
	obj_231	118059
	obj_232	178893
	obj_233	148653
	obj_234	116245
	obj_235	193814
	obj_236	188372
	obj_237	126720
	obj_238	135839
	obj_239	116649
	obj_240	112612
	obj_241	199582
	obj_242	160562
	obj_243	124113
	obj_244	122185
	obj_245	148101
	obj_246	154079
	obj_247	120166
	obj_248	146554
	obj_249	176506
	obj_250	179152
	obj_251	192604
	obj_252	185564
	obj_253	150267
	obj_254	116459
	obj_255	127180
	obj_256	188607
	obj_257	112924
	obj_258	116708
	obj_259	132071
	obj_260	156226
	obj_261	139299
	obj_262	147107
	obj_263	176323
	obj_264	122764
	obj_265	104341
	obj_266	106237
	obj_267	173658
	obj_268	180867
	obj_269	159082
	obj_270	157857
	obj_271	111818
	obj_272	138170
	obj_273	166682
	obj_274	186686
	obj_275	142740
	obj_276	108607
	obj_277	185473
	obj_278	119805
	obj_279	176633
	obj_280	118030
	obj_281	173128
	obj_282	143537
	obj_283	195081
	obj_284	139129
	obj_285	152283
	obj_286	183092
	obj_287	137043
	obj_288	121515
	obj_289	157556
	obj_290	127967
	obj_291	199351
	obj_292	156277
	obj_293	182757
	obj_294	156950
	obj_295	132032
	obj_296	182512
	obj_297	151062
	obj_298	104347
	obj_299	108452
	obj_300	121400
	obj_301	185732
	obj_302	159270
	obj_303	141632
	obj_304	127578
	obj_305	106154
	obj_306	195629
	obj_307	105711
	obj_308	117630
	obj_309	146517
	obj_310	131908
	obj_311	179931
	obj_312	167062
	obj_313	184665
	obj_314	191187
	obj_315	175989
	obj_316	159276
	obj_317	138080
	obj_318	137712
	obj_319	160849
	obj_320	165836
	obj_321	175300
	obj_322	108096
	obj_323	181169
	obj_324	112391
	obj_325	136805
	obj_326	140532
	obj_327	192889
	obj_328	155470
	obj_329	123393
	obj_330	125139
	obj_331	140488
	obj_332	111894
	obj_333	180805
	obj_334	194749
	obj_335	189184
	obj_336	128870
	obj_337	177163
	obj_338	180783
	obj_339	192569
	obj_340	118250
	obj_341	141689
	obj_342	110174
	obj_343	129263
	obj_344	106818
	obj_345	159949
	obj_346	177002
	obj_347	108758
	obj_348	163576
	obj_349	140629
	obj_350	166808
	obj_351	129015
	obj_352	104414
	obj_353	137326
	obj_354	175097
	obj_355	183774
	obj_356	197849
	obj_357	183510
	obj_358	169398
	obj_359	197953
	obj_360	134152
	obj_361	125081
	obj_362	197414
	obj_363	111067
	obj_364	126788
	obj_365	183969
	obj_366	190741
	obj_367	152634
	obj_368	169619
	obj_369	118478
	obj_370	100891
	obj_371	105140
	obj_372	116391
	obj_373	142625
	obj_374	143027
	obj_375	179265
	obj_376	196658
	obj_377	142148
	obj_378	136685
	obj_379	132640
	obj_380	167306
	obj_381	150504
	obj_382	109916
	obj_383	122011
	obj_384	107749
	obj_385	177686
	obj_386	173827
	obj_387	145332
	obj_388	101993
	obj_389	143332
	obj_390	166679
	obj_391	191757
	obj_392	156109
	obj_393	163381
	obj_394	135354
	obj_395	159675
	obj_396	104505
	obj_397	119510
	obj_398	168266
	obj_399	157727
	obj_400	108551
	obj_401	202698
	obj_402	104413
	obj_403	200428
	obj_404	166211
	obj_405	183790
	obj_406	197460
	obj_407	202463
	obj_408	198288
	obj_409	179837
	obj_410	200967
	obj_411	122714
	obj_412	129432
	obj_413	115513
	obj_414	191817
	obj_415	125756
	obj_416	141248
	obj_417	116076
	obj_418	166302
	obj_419	115877
	obj_420	170362
	obj_421	184655
	obj_422	103857
	obj_423	115697
	obj_424	199661
	obj_425	191581
	obj_426	183791
	obj_427	164633
	obj_428	120114
	obj_429	152153
	obj_430	130542
	obj_431	174534
	obj_432	108505
	obj_433	193894
	obj_434	124168
	obj_435	137039
	obj_436	113808
	obj_437	143511
	obj_438	180563
	obj_439	193923
	obj_440	137081
	obj_441	177414
	obj_442	123414
	obj_443	110047
	obj_444	114335
	obj_445	164333
	obj_446	178657
	obj_447	157312
	obj_448	173462
	obj_449	140891
	obj_450	202878
	obj_451	180323
	obj_452	114000
	obj_453	167300
	obj_454	176209
	obj_455	178706
	obj_456	191560
	obj_457	155207
	obj_458	109425
	obj_459	171633
	obj_460	189519
	obj_461	157588
	obj_462	179744
	obj_463	130222
	obj_464	127510
	obj_465	194837
	obj_466	111920
	obj_467	200047
	obj_468	137495
	obj_469	110853
	obj_470	122074
	obj_471	107704
	obj_472	129186
	obj_473	177373
	obj_474	161390
	obj_475	153479
	obj_476	107685
	obj_477	104138
	obj_478	133128
	obj_479	207061
	obj_480	174539
	obj_481	164054
	obj_482	140550
	obj_483	131664
	obj_484	130232
	obj_485	113930
	obj_486	200166
	obj_487	168190
	obj_488	119973
	obj_489	154572
	obj_490	115710
	obj_491	137747
	obj_492	190900
	obj_493	201973
	obj_494	134634
	obj_495	189993
	obj_496	171716
	obj_497	154512
	obj_498	150452
	obj_499	111754
	obj_500	183664
;

param masse_sac := 2000;

end;